p cnf 40 66
1 2 3 4 5 6 7 8 9 10 0
-20 14 22 0
-21 15 22 0
-17 14 22 0
-18 15 22 0
-17 -20 15 22 0
-17 -21 22 0
-18 -20 22 0
-18 -21 14 0
-22 11 0
-19 11 0
-22 -19 12 0
-16 11 0
-22 -16 12 0
-16 -19 12 0
-22 -16 -19 13 0
-10 26 0
-9 26 0
-9 -10 27 0
-26 20 28 0
-27 21 28 0
-24 20 28 0
-25 21 28 0
-24 -26 21 28 0
-24 -27 28 0
-25 -26 28 0
-25 -27 20 0
-28 19 0
-23 19 0
-28 -23 0
-7 29 0
-6 29 0
-6 -7 30 0
-8 24 31 0
-29 24 31 0
-30 25 31 0
-29 -8 25 31 0
-30 -8 31 0
-31 23 0
-5 35 0
-4 35 0
-4 -5 36 0
-35 17 37 0
-36 18 37 0
-33 17 37 0
-34 18 37 0
-33 -35 18 37 0
-33 -36 37 0
-34 -35 37 0
-34 -36 17 0
-37 16 0
-32 16 0
-37 -32 0
-2 38 0
-1 38 0
-1 -2 39 0
-3 33 40 0
-38 33 40 0
-39 34 40 0
-38 -3 34 40 0
-39 -3 40 0
-40 32 0
-11 0
-12 0
-13 0
-15 0
